p cnf 760 1287
3  1  2  0
-5  -3  -4  0
-7  5  6  0
9  7  -8  0
11  9  10  0
15  13  -14  0
17  15  16  0
19  -17  -18  0
21  -19  20  0
-23  21  -22  0
25  23  -24  0
-27  25  26  0
-29  27  -28  0
31  -29  -30  0
33  31  32  0
-37  35  36  0
39  37  38  0
41  -39  40  0
-43  -41  42  0
45  43  44  0
-47  -45  -46  0
49  -47  -48  0
51  -49  50  0
-53  51  52  0
55  -53  54  0
-57  -55  -56  0
-59  -57  -58  0
-61  -59  -60  0
-63  61  62  0
-65  63  -64  0
-67  -65  66  0
69  67  -68  0
71  69  70  0
-73  -71  72  0
-75  -73  -74  0
77  -75  76  0
79  -77  78  0
-81  -79  80  0
83  81  -82  0
-85  83  84  0
87  85  -86  0
91  -89  -90  0
-95  93  -94  0
-97  -95  96  0
-99  97  -98  0
-101  99  -100  0
-103  -101  102  0
-107  -105  106  0
109  -107  108  0
111  -109  -110  0
-113  111  -112  0
-115  -113  114  0
-117  -115  -116  0
119  117  118  0
121  119  120  0
123  121  122  0
-125  -123  -124  0
-127  -125  126  0
129  127  128  0
131  -129  130  0
133  -131  132  0
135  -133  -134  0
137  135  -136  0
139  -137  138  0
141  -139  140  0
143  -141  -142  0
-145  143  -144  0
-147  145  -146  0
-149  -147  -148  0
-151  149  -150  0
-155  153  154  0
159  157  -158  0
-161  -159  160  0
-163  161  162  0
-165  -163  -164  0
169  167  168  0
-171  -169  -170  0
173  -171  -172  0
-175  -173  174  0
-177  -175  -176  0
-179  -177  178  0
181  179  180  0
-183  181  182  0
-185  -183  184  0
-187  -185  -186  0
-191  189  -190  0
193  -191  -192  0
195  -193  194  0
197  195  196  0
199  -197  198  0
201  199  200  0
203  201  -202  0
207  205  -206  0
-209  207  208  0
211  -209  210  0
213  211  -212  0
-215  213  214  0
217  -215  216  0
-219  217  218  0
-221  219  220  0
-223  -221  222  0
-227  225  226  0
-229  -227  -228  0
235  -233  -234  0
237  235  -236  0
239  237  238  0
241  239  240  0
245  -243  244  0
-247  -245  -246  0
-249  247  -248  0
251  249  -250  0
253  251  -252  0
-255  -253  -254  0
-259  -257  -258  0
261  -259  -260  0
263  -261  -262  0
-265  263  -264  0
267  265  -266  0
-269  267  268  0
-271  -269  -270  0
273  271  -272  0
275  -273  -274  0
277  -275  276  0
279  277  278  0
281  279  280  0
-285  -283  284  0
-287  -285  286  0
-289  287  -288  0
291  289  290  0
-297  -295  -296  0
299  297  298  0
301  299  300  0
303  -301  -302  0
307  305  306  0
-309  307  -308  0
311  -309  -310  0
313  -311  312  0
315  -313  -314  0
317  -315  316  0
-319  -317  318  0
321  -319  -320  0
-323  321  322  0
325  -323  324  0
329  -327  328  0
-333  331  -332  0
335  333  -334  0
-341  339  340  0
-343  -341  -342  0
345  343  344  0
-347  -345  346  0
353  351  -352  0
355  -353  -354  0
357  355  -356  0
361  -359  -360  0
-363  -361  -362  0
365  -363  364  0
367  -365  -366  0
-369  -367  368  0
-373  -371  -372  0
375  373  374  0
377  -375  376  0
379  -377  378  0
381  379  -380  0
383  381  382  0
-385  383  384  0
387  -385  386  0
-389  387  388  0
-391  389  -390  0
-395  393  -394  0
399  -397  -398  0
-401  399  -400  0
-405  -403  -404  0
407  405  -406  0
-409  -407  408  0
-411  409  410  0
-413  411  412  0
417  -415  -416  0
-419  -417  -418  0
-421  -419  -420  0
423  421  422  0
-425  423  -424  0
427  -425  426  0
431  429  430  0
433  -431  432  0
435  433  -434  0
-437  -435  436  0
439  -437  438  0
441  -439  440  0
443  -441  -442  0
445  -443  -444  0
-451  449  450  0
-453  451  452  0
-455  -453  -454  0
457  -455  456  0
-459  457  458  0
-461  459  460  0
463  -461  -462  0
465  -463  464  0
-469  467  -468  0
471  469  -470  0
473  471  472  0
-475  -473  474  0
477  -475  -476  0
487  -485  -486  0
491  489  -490  0
-493  -491  -492  0
-497  -495  496  0
-499  -497  498  0
-501  -499  -500  0
503  -501  -502  0
-505  503  504  0
507  -505  506  0
509  -507  508  0
-511  -509  -510  0
513  511  512  0
515  -513  514  0
519  -517  -518  0
-521  519  -520  0
523  -521  -522  0
527  525  526  0
529  -527  528  0
-531  529  530  0
-533  531  -532  0
535  533  -534  0
-537  -535  536  0
539  537  -538  0
541  -539  -540  0
-543  -541  542  0
-545  -543  544  0
547  545  546  0
-549  547  548  0
-551  549  -550  0
-553  551  -552  0
-555  553  554  0
-557  555  556  0
559  557  558  0
-561  559  -560  0
563  561  -562  0
565  -563  564  0
567  -565  566  0
-571  -569  570  0
575  573  574  0
577  -575  -576  0
579  -577  -578  0
-581  -579  -580  0
583  -581  582  0
585  583  584  0
587  585  586  0
-589  -587  -588  0
591  -589  -590  0
593  591  592  0
595  593  594  0
597  595  -596  0
-603  601  -602  0
-605  603  604  0
607  605  -606  0
-609  607  608  0
-611  609  610  0
-613  -611  612  0
615  613  614  0
617  615  616  0
-619  -617  -618  0
-625  -623  624  0
-627  -625  -626  0
-629  627  -628  0
631  629  630  0
635  633  634  0
-641  -639  640  0
-643  641  642  0
-645  643  -644  0
647  645  -646  0
-649  -647  -648  0
-651  649  650  0
653  651  -652  0
-659  657  658  0
-661  659  -660  0
-663  661  662  0
665  663  664  0
667  665  -666  0
-669  667  -668  0
-671  669  670  0
-673  671  -672  0
675  -673  -674  0
677  675  676  0
-679  -677  -678  0
-681  -679  -680  0
683  -681  682  0
685  683  684  0
-689  687  -688  0
-691  -689  -690  0
-693  -691  692  0
697  695  696  0
-699  697  698  0
703  701  702  0
-705  703  704  0
-707  -705  706  0
-709  -707  708  0
-711  -709  710  0
713  -711  -712  0
-715  713  714  0
717  715  716  0
725  -723  724  0
-727  -725  726  0
-729  727  728  0
-731  -729  -730  0
-735  733  -734  0
737  735  -736  0
739  -737  -738  0
-741  739  -740  0
743  -741  742  0
-745  743  744  0
-747  745  -746  0
-749  -747  748  0
-751  749  -750  0
753  -751  -752  0
755  753  -754  0
-757  -755  -756  0
-759  -757  758  0
-4  -3  2  0
-4  3  1  0
4  -1  2  0
6  5  4  0
-6  5  -3  0
6  3  4  0
-8  -7  -6  0
8  -5  6  0
10  -9  -8  0
-10  -9  7  0
10  -7  -8  0
-12  11  -10  0
-12  11  -9  0
12  -9  -10  0
14  -13  12  0
-14  13  11  0
-14  11  12  0
-16  -15  -14  0
-16  -15  13  0
16  -13  -14  0
-18  -17  16  0
18  -15  -16  0
-20  -19  18  0
20  -19  17  0
20  17  -18  0
22  21  20  0
22  -21  19  0
-24  -23  22  0
24  23  21  0
24  -21  22  0
26  25  -24  0
26  -25  -23  0
-26  -23  24  0
-28  -27  -26  0
-28  -25  -26  0
30  29  -28  0
30  29  27  0
30  27  -28  0
32  -31  -30  0
32  31  29  0
32  29  30  0
-34  -33  -32  0
34  -33  -31  0
34  -31  32  0
36  -35  34  0
36  -35  -33  0
38  -37  36  0
38  -37  35  0
38  35  36  0
-40  -39  38  0
40  39  37  0
-40  37  -38  0
-42  -41  40  0
-42  -41  -39  0
42  -39  40  0
-44  43  -42  0
44  -43  41  0
-44  -41  42  0
46  45  -44  0
46  -45  -43  0
46  43  -44  0
-48  47  46  0
48  -47  -45  0
-48  45  46  0
50  49  48  0
-50  -49  -47  0
50  47  -48  0
-52  51  50  0
52  51  49  0
-54  -51  -52  0
56  -55  -54  0
-56  -55  -53  0
-56  53  -54  0
58  57  56  0
-58  57  55  0
58  -55  56  0
60  59  -58  0
-60  -59  57  0
-60  57  -58  0
62  -61  -60  0
-62  59  60  0
64  63  -62  0
-64  61  62  0
-66  -65  64  0
66  65  63  0
-66  63  -64  0
68  -67  66  0
68  -67  65  0
68  65  66  0
70  69  67  0
70  -67  -68  0
72  71  69  0
-72  -69  70  0
-74  73  72  0
-74  73  71  0
-74  -71  72  0
-76  -75  74  0
76  -75  73  0
76  -73  -74  0
-78  77  -76  0
-78  77  -75  0
80  -79  77  0
-80  77  78  0
82  81  -80  0
-82  -81  79  0
82  79  -80  0
84  83  -81  0
84  81  -82  0
86  -85  -84  0
86  -85  -83  0
86  -83  -84  0
-88  -87  -86  0
-88  87  85  0
-88  -85  86  0
-90  -89  -88  0
-90  -89  -87  0
92  91  90  0
92  -91  89  0
-92  -89  90  0
94  -93  92  0
94  93  91  0
-96  -95  94  0
96  93  94  0
-98  97  -96  0
-98  -97  95  0
98  95  -96  0
-100  99  98  0
100  99  -97  0
-100  -97  -98  0
102  101  100  0
102  101  -99  0
102  -99  100  0
104  103  -102  0
104  103  -101  0
-104  101  102  0
106  105  104  0
-106  105  -103  0
106  103  104  0
-108  -107  105  0
108  -105  -106  0
-110  -109  108  0
-110  109  -107  0
-110  -107  -108  0
112  111  110  0
112  111  -109  0
-114  -113  111  0
-114  -111  112  0
116  -115  113  0
-116  -113  114  0
118  117  116  0
-118  -115  -116  0
-120  119  118  0
120  -119  117  0
120  117  -118  0
-122  -121  120  0
-122  -121  119  0
122  -119  120  0
124  123  122  0
-124  123  -121  0
124  121  122  0
126  125  -124  0
126  -125  123  0
-128  127  126  0
-128  -127  -125  0
-128  125  -126  0
-130  -129  -128  0
130  129  127  0
-130  127  128  0
-132  -131  -129  0
-132  -129  130  0
-134  133  132  0
-134  -133  -131  0
-134  131  -132  0
-136  135  134  0
-136  -135  -133  0
136  133  -134  0
-138  -137  136  0
-138  137  -135  0
-138  -135  -136  0
-140  -139  -138  0
140  -139  -137  0
-140  -137  138  0
-142  141  -140  0
142  141  -139  0
-144  -141  142  0
146  -143  -144  0
148  -147  146  0
148  147  145  0
148  145  -146  0
150  -149  -148  0
150  -147  148  0
152  151  -150  0
-152  151  -149  0
-152  -149  -150  0
154  153  152  0
154  -153  -151  0
-154  -151  -152  0
-156  -155  -154  0
-156  155  153  0
-158  -157  -156  0
-158  -157  155  0
160  159  158  0
-160  -159  -157  0
-160  -157  158  0
-162  -161  -159  0
-164  163  162  0
164  -163  -161  0
164  161  162  0
166  -165  -164  0
-166  165  -163  0
-166  163  164  0
-168  -167  166  0
-168  167  -165  0
168  -165  -166  0
170  169  167  0
-170  -167  168  0
-172  -171  -170  0
-172  169  -170  0
174  173  -172  0
174  173  171  0
174  171  172  0
176  175  174  0
176  175  -173  0
176  -173  174  0
-178  177  -176  0
178  177  175  0
-178  175  -176  0
-180  179  -178  0
-180  -179  177  0
182  -181  179  0
-184  -183  -182  0
-184  -183  -181  0
-184  181  -182  0
186  -185  -184  0
-186  185  -183  0
-186  183  184  0
188  187  -186  0
-188  187  185  0
-188  185  -186  0
-190  189  188  0
-190  -189  187  0
-190  187  -188  0
192  -191  190  0
-192  -191  189  0
-194  -193  192  0
194  191  -192  0
-196  195  -194  0
-196  -195  -193  0
-196  193  -194  0
198  197  -196  0
-198  197  195  0
198  -195  196  0
-200  199  -198  0
200  199  -197  0
-200  -197  198  0
-202  -201  -200  0
202  -201  -199  0
-202  -199  -200  0
-204  203  -201  0
204  -201  -202  0
206  205  204  0
206  -203  -204  0
208  207  205  0
-208  -205  206  0
210  209  -208  0
-210  209  -207  0
-210  207  -208  0
212  -211  210  0
-212  211  -209  0
212  -209  -210  0
214  213  -212  0
-214  -213  -211  0
214  -211  -212  0
216  -215  214  0
216  -215  -213  0
-216  -213  214  0
218  -217  216  0
-218  217  -215  0
-218  215  216  0
-220  219  218  0
-220  -219  217  0
-220  217  -218  0
-222  -221  -220  0
-222  221  219  0
-222  219  -220  0
224  -223  -222  0
224  -223  -221  0
224  221  -222  0
226  -225  224  0
-226  225  223  0
226  -223  -224  0
228  227  -226  0
-228  -227  -225  0
228  -225  226  0
230  229  -228  0
230  -229  -227  0
-232  -231  230  0
-232  231  229  0
-232  -229  -230  0
234  233  -231  0
-236  235  234  0
-236  233  234  0
-238  -237  -236  0
238  -237  -235  0
-238  235  236  0
-240  239  238  0
-240  -239  -237  0
-240  237  -238  0
242  -241  -240  0
242  241  -239  0
242  -239  -240  0
-244  243  242  0
244  243  -241  0
244  -241  242  0
-246  -245  -244  0
-246  -245  243  0
246  243  -244  0
-248  247  246  0
248  247  -245  0
-248  245  -246  0
-250  -249  247  0
250  -247  248  0
252  251  -249  0
-252  249  250  0
-254  253  252  0
-254  -253  -251  0
256  255  254  0
-256  -255  -253  0
256  -253  -254  0
258  257  256  0
-258  -257  255  0
-258  -255  -256  0
-260  -259  258  0
-260  257  258  0
-262  -261  -260  0
262  -261  -259  0
262  259  -260  0
-264  -263  -262  0
264  -261  -262  0
-266  -265  -263  0
-266  263  264  0
268  267  266  0
-268  267  265  0
-270  -269  268  0
-270  -269  267  0
270  -267  -268  0
-272  271  -270  0
272  271  -269  0
-272  269  -270  0
-274  273  -272  0
-274  -273  -271  0
274  -271  -272  0
-276  275  -273  0
276  273  274  0
278  -277  276  0
-278  -275  -276  0
-280  279  278  0
280  277  278  0
282  -281  280  0
-282  281  279  0
282  279  280  0
-284  -283  -282  0
284  283  281  0
-284  -281  282  0
-286  285  284  0
-286  285  283  0
-286  283  -284  0
-288  287  -285  0
288  285  286  0
-290  -289  288  0
290  -289  -287  0
-290  287  288  0
-292  291  -290  0
292  291  -289  0
292  -289  290  0
-294  -293  292  0
-294  -293  291  0
-294  291  292  0
296  -295  293  0
-296  -293  -294  0
298  297  -296  0
298  297  -295  0
-300  299  297  0
-302  -301  299  0
304  303  -302  0
-304  303  -301  0
-304  -301  -302  0
-306  305  304  0
-306  305  303  0
308  307  -306  0
-308  307  305  0
308  -305  -306  0
310  309  -308  0
310  -309  -307  0
312  311  -310  0
-312  311  309  0
312  -309  -310  0
314  -313  311  0
316  -315  314  0
-316  313  314  0
318  -317  -316  0
318  317  -315  0
-318  315  -316  0
320  -319  -317  0
320  317  -318  0
322  321  319  0
-322  -319  -320  0
-324  323  -322  0
324  -323  -321  0
324  -321  -322  0
326  325  -324  0
326  325  -323  0
-326  -323  -324  0
328  327  -326  0
-328  -327  325  0
-328  -325  326  0
-330  329  -328  0
-330  329  327  0
-332  331  330  0
332  331  -329  0
332  -329  330  0
-334  333  -332  0
-334  333  -331  0
334  331  -332  0
336  335  -334  0
338  -337  336  0
-338  -337  -335  0
338  -335  -336  0
340  -339  338  0
340  -339  -337  0
-340  -337  338  0
342  -341  -340  0
342  -341  -339  0
-342  339  340  0
344  343  342  0
-344  343  -341  0
344  341  -342  0
346  -345  344  0
-346  345  -343  0
-346  343  344  0
-348  -347  -346  0
-350  -349  347  0
-350  -347  -348  0
-352  -351  -349  0
-352  349  350  0
354  353  -352  0
354  351  352  0
-356  355  -354  0
-356  -355  353  0
356  -353  354  0
358  -357  356  0
-358  357  355  0
-360  359  -358  0
360  -359  -357  0
360  -357  -358  0
-362  -361  360  0
-362  361  -359  0
-362  359  -360  0
364  -363  -362  0
-364  -363  -361  0
364  -361  -362  0
366  365  -364  0
-366  -365  -363  0
-366  363  -364  0
368  367  -366  0
-368  367  365  0
-368  365  366  0
-370  -369  368  0
370  -369  -367  0
-370  -367  -368  0
372  369  370  0
374  -373  371  0
-374  371  372  0
376  375  374  0
-376  -375  -373  0
378  377  376  0
378  -377  375  0
378  -375  376  0
380  379  -378  0
-380  377  -378  0
-382  -381  -380  0
382  -381  379  0
382  379  380  0
384  -383  382  0
384  -383  381  0
386  -385  -383  0
386  -383  384  0
-388  387  386  0
388  387  385  0
-388  385  386  0
390  389  -387  0
390  -387  -388  0
392  391  -390  0
-392  391  389  0
392  -389  390  0
394  393  391  0
-394  -391  392  0
396  -395  -394  0
396  395  -393  0
398  -397  396  0
-402  -401  400  0
402  401  -399  0
402  399  -400  0
404  403  -402  0
404  -401  -402  0
406  -405  -404  0
408  407  405  0
-408  405  406  0
410  409  -408  0
-410  409  -407  0
-410  -407  -408  0
-412  411  -410  0
412  409  410  0
414  413  -411  0
414  411  412  0
-416  415  414  0
-416  415  413  0
416  413  414  0
-418  -417  -416  0
418  -415  416  0
420  419  418  0
420  419  417  0
420  417  418  0
-422  421  420  0
-422  421  419  0
-422  -419  -420  0
424  -423  -422  0
-424  423  -421  0
-424  421  422  0
426  -425  -424  0
426  425  423  0
426  423  -424  0
-428  427  -426  0
428  427  425  0
-428  -425  -426  0
-430  429  428  0
-430  429  427  0
430  -427  428  0
-432  -431  430  0
-432  431  -429  0
-432  429  430  0
-434  433  -431  0
434  -431  432  0
-436  435  434  0
436  435  -433  0
-436  -433  -434  0
-438  437  -436  0
438  437  435  0
440  -439  438  0
-440  439  437  0
-440  437  438  0
442  -441  439  0
442  439  -440  0
444  443  442  0
-444  -443  441  0
444  -441  -442  0
446  -445  -444  0
446  -445  443  0
446  443  -444  0
-448  447  446  0
-448  447  445  0
-448  445  -446  0
-450  447  -448  0
-452  451  -449  0
452  -449  450  0
454  -453  452  0
-454  453  -451  0
-456  455  454  0
456  -455  -453  0
456  -453  -454  0
458  457  -455  0
-458  -455  456  0
-460  -459  458  0
-460  459  457  0
460  -457  458  0
462  -461  -460  0
-462  -461  -459  0
462  -459  -460  0
464  -463  -462  0
-464  461  -462  0
466  -465  -464  0
466  -465  463  0
466  -463  464  0
-468  -467  466  0
468  -467  -465  0
468  -465  466  0
470  469  468  0
-470  -469  467  0
470  467  -468  0
-472  471  470  0
472  -471  469  0
472  469  470  0
474  473  471  0
-474  471  472  0
-476  475  -474  0
476  -475  473  0
476  473  -474  0
-478  -477  -476  0
-478  -477  -475  0
478  475  476  0
480  -479  478  0
-480  479  477  0
-482  -481  -479  0
-482  479  -480  0
-484  483  482  0
484  483  -481  0
-484  481  482  0
486  485  -484  0
486  485  -483  0
-486  -483  -484  0
-488  -487  -486  0
488  -487  -485  0
488  -485  -486  0
490  489  488  0
-490  -489  487  0
-490  -487  488  0
-492  -491  490  0
492  491  489  0
492  -489  -490  0
-494  -493  492  0
494  -493  491  0
494  491  -492  0
-496  -495  494  0
-496  495  -493  0
498  497  -496  0
498  497  -495  0
-500  -499  -498  0
500  -499  497  0
-500  -497  -498  0
-502  -501  500  0
502  -501  499  0
-504  503  502  0
-504  -503  -501  0
-506  -505  503  0
-508  -507  506  0
-508  507  -505  0
508  -505  506  0
510  509  508  0
510  -509  507  0
-510  507  -508  0
-512  511  -510  0
-512  -511  509  0
512  -509  510  0
514  -513  512  0
514  513  -511  0
-514  -511  512  0
-516  -515  514  0
518  -517  -516  0
-518  517  -515  0
518  515  -516  0
520  -519  518  0
520  519  517  0
520  -517  518  0
-522  521  520  0
522  -521  -519  0
522  519  520  0
-524  -523  -521  0
-524  521  -522  0
526  -525  524  0
-526  525  523  0
-526  -523  524  0
528  527  526  0
528  -527  525  0
528  -525  526  0
530  529  528  0
530  529  527  0
532  -531  -530  0
532  531  -529  0
-532  -529  530  0
534  533  532  0
-534  531  532  0
536  -535  533  0
536  533  -534  0
538  -537  536  0
-538  537  -535  0
538  535  536  0
540  -539  538  0
540  -539  537  0
-540  -537  538  0
-542  -541  -539  0
-542  -539  -540  0
544  -543  -542  0
544  543  -541  0
544  -541  542  0
546  -545  -544  0
-546  -545  543  0
-546  -543  544  0
-548  -547  -546  0
-548  -547  545  0
548  545  -546  0
550  549  -548  0
550  -549  -547  0
552  -551  -549  0
552  549  -550  0
554  -553  552  0
554  -553  -551  0
556  -555  -554  0
556  -555  -553  0
-556  -553  554  0
558  557  -556  0
-558  557  555  0
558  555  556  0
560  -559  -558  0
560  559  -557  0
560  -557  558  0
-562  -561  559  0
-562  559  560  0
564  563  562  0
564  -563  561  0
-564  561  562  0
-566  563  -564  0
568  567  -566  0
568  567  565  0
568  565  566  0
570  569  -568  0
570  -569  567  0
570  567  -568  0
572  571  -570  0
-572  571  -569  0
-572  569  570  0
-574  -573  572  0
574  573  571  0
574  571  -572  0
-576  575  574  0
-576  575  573  0
-576  -573  -574  0
578  577  -576  0
-578  -577  575  0
578  575  -576  0
-580  579  578  0
-580  579  -577  0
-580  -577  -578  0
582  581  -580  0
582  581  -579  0
582  579  -580  0
-584  -583  -582  0
-584  583  581  0
-584  581  -582  0
-586  585  -584  0
586  -585  -583  0
-586  583  584  0
-588  587  585  0
-588  -585  586  0
590  -589  -588  0
-590  -587  -588  0
592  591  590  0
-592  591  589  0
592  589  -590  0
-594  -593  592  0
-594  593  591  0
594  591  -592  0
-596  -595  -593  0
596  593  -594  0
598  597  596  0
598  595  596  0
-600  -599  -598  0
-600  599  597  0
-600  597  -598  0
-602  -601  -600  0
-602  601  599  0
-604  603  602  0
-604  603  -601  0
604  601  -602  0
-606  -605  -604  0
-606  605  603  0
-606  603  -604  0
608  -607  -606  0
608  -607  605  0
608  -605  -606  0
610  609  -608  0
610  -609  -607  0
612  -611  610  0
-612  611  -609  0
612  609  -610  0
614  -613  -612  0
-614  -613  -611  0
-614  611  -612  0
-616  -615  614  0
-616  615  -613  0
616  -613  614  0
618  -617  -616  0
618  617  -615  0
-618  615  616  0
-620  -619  618  0
-620  -617  -618  0
-622  -621  620  0
-622  -619  620  0
-624  -623  -622  0
-624  621  -622  0
-626  -625  624  0
-626  625  -623  0
-626  -623  -624  0
628  627  -625  0
-628  -625  -626  0
-630  629  -628  0
-630  629  -627  0
630  -627  -628  0
-632  -631  630  0
632  -631  -629  0
632  -629  630  0
634  -633  632  0
634  633  631  0
634  631  -632  0
-636  635  634  0
636  -635  633  0
636  -633  634  0
-638  637  -636  0
-638  637  635  0
638  635  -636  0
640  -639  638  0
-640  -639  637  0
-640  -637  638  0
-642  641  640  0
-642  639  640  0
644  643  -642  0
-644  -643  -641  0
644  -641  642  0
-646  645  -644  0
-646  645  643  0
646  -643  -644  0
-648  647  -646  0
648  -647  645  0
648  645  -646  0
-650  649  648  0
650  -649  -647  0
652  651  650  0
-652  651  -649  0
-652  -649  650  0
654  -653  -651  0
-654  -651  652  0
656  655  -654  0
-656  655  -653  0
656  -653  654  0
-658  657  -656  0
658  -657  655  0
-658  655  -656  0
-660  -659  658  0
-660  659  -657  0
660  657  -658  0
-662  -661  -660  0
662  -661  659  0
662  -659  -660  0
664  663  -662  0
-664  663  661  0
664  661  -662  0
666  -665  -663  0
-666  663  664  0
668  -667  666  0
668  667  -665  0
-668  -665  666  0
-670  -669  668  0
-670  667  -668  0
672  671  -670  0
-672  -671  -669  0
-674  -673  -672  0
674  673  -671  0
-674  -671  -672  0
-676  675  -674  0
-676  -673  674  0
678  677  -676  0
-678  -677  -675  0
678  -675  -676  0
680  679  -678  0
680  679  -677  0
680  -677  678  0
-682  -681  -680  0
682  681  -679  0
684  -683  682  0
684  683  -681  0
-684  681  682  0
-686  685  -684  0
686  683  -684  0
-688  -687  -686  0
-688  687  -685  0
688  685  686  0
-690  -689  688  0
690  -689  -687  0
690  -687  -688  0
-692  -691  -690  0
-692  -691  -689  0
692  689  690  0
694  -693  692  0
-694  -693  691  0
-694  691  -692  0
-696  -695  -693  0
696  693  694  0
-698  697  696  0
-698  -697  695  0
-698  -695  -696  0
700  699  -698  0
-700  -699  -697  0
700  697  -698  0
702  -701  700  0
702  -701  699  0
-704  -703  -702  0
704  701  702  0
-706  705  704  0
-706  705  -703  0
-706  -703  704  0
708  -707  -706  0
-708  -707  -705  0
-708  705  706  0
-710  -709  708  0
-710  -709  -707  0
-712  -711  710  0
712  711  709  0
712  709  -710  0
714  713  -712  0
714  713  711  0
714  -711  712  0
-716  715  -714  0
-716  715  713  0
-716  -713  -714  0
718  -717  716  0
-718  -717  715  0
-718  715  -716  0
-720  719  -718  0
-720  719  717  0
720  717  718  0
722  -721  720  0
722  721  -719  0
722  -719  720  0
724  723  722  0
724  723  -721  0
-724  -721  722  0
726  725  724  0
-726  -723  724  0
-728  -727  -726  0
-728  -727  -725  0
-728  725  -726  0
730  729  728  0
730  -729  -727  0
-732  731  730  0
732  -729  -730  0
734  -733  -732  0
-734  -733  731  0
-736  -735  734  0
-736  -735  -733  0
736  733  -734  0
738  -737  736  0
-738  737  -735  0
740  739  -738  0
-740  739  -737  0
-740  737  738  0
-742  741  -739  0
-744  -743  -741  0
-744  -741  742  0
746  -745  -744  0
-746  745  -743  0
746  743  744  0
-748  747  -746  0
748  -747  745  0
750  749  748  0
-750  -749  -747  0
-750  -747  -748  0
752  -751  749  0
-752  749  -750  0
754  753  -752  0
754  -753  -751  0
754  -751  -752  0
756  -755  -754  0
-756  -755  753  0
756  -753  -754  0
758  -757  -756  0
758  -757  755  0
-758  -755  -756  0
760  759  758  0
760  -759  -757  0
760  757  758  0
